(set-logic HORN)
(declare-fun state (Int Int Int Int Int Int Int Bool (Array Int Int) Int (Array Int Int) (Array Int Int) (Array Int Int) (Array Int Int) (Array Int Int) (Array Int Int) (Array Int Int)) Bool)
(assert (forall ((|A| Int) (|B| Int) (|C| Int) (|D| Int) (|F| Int) (|K| Int) (|.y.2| Int) (|.loc.3| Bool) (|E.1| (Array Int Int)) (|J| Int) (|I| (Array Int Int)) (|H| (Array Int Int)) (|E_0.1| (Array Int Int)) (|H_0| (Array Int Int)) (|E_1.1| (Array Int Int)) (|J_0| (Array Int Int)) (|H_1| (Array Int Int)) (|G| Int) (|.x.1| Int) (|.x.2| Int) (|.x.3| Int) (|.x.4| Int) (|.x.5| Int) (|.x.6| Int) (|.loc.4| Bool) (|.xtv.1| (Array Int Int)) (|.xtv.2| Int) (|.xtv.3| (Array Int Int)) (|.xtv.4| (Array Int Int)) (|.xiv.1| (Array Int Int)) (|.xiv.2| (Array Int Int)) (|.xpv.1| (Array Int Int)) (|.xpv.2| (Array Int Int)) (|.xpv.3| (Array Int Int))) (=> (and (and (and (and (and (= (select E_0.1 B) 0) (= D (select H_0 D))) (= C (select H_0 C))) (= A (select H_0 A))) (not (= (select E_0.1 F) 0))) (not .loc.3)) (state |A| |B| |C| |D| |F| |K| |.y.2| |.loc.3| |E.1| |J| |I| |H| |E_0.1| |H_0| |E_1.1| |J_0| |H_1|))))
(assert (forall ((|A| Int) (|B| Int) (|C| Int) (|D| Int) (|F| Int) (|K| Int) (|.y.2| Int) (|.loc.3| Bool) (|E.1| (Array Int Int)) (|J| Int) (|I| (Array Int Int)) (|H| (Array Int Int)) (|E_0.1| (Array Int Int)) (|H_0| (Array Int Int)) (|E_1.1| (Array Int Int)) (|J_0| (Array Int Int)) (|H_1| (Array Int Int)) (|G| Int) (|.x.1| Int) (|.x.2| Int) (|.x.3| Int) (|.x.4| Int) (|.x.5| Int) (|.x.6| Int) (|.loc.4| Bool) (|.xtv.1| (Array Int Int)) (|.xtv.2| Int) (|.xtv.3| (Array Int Int)) (|.xtv.4| (Array Int Int)) (|.xiv.1| (Array Int Int)) (|.xiv.2| (Array Int Int)) (|.xpv.1| (Array Int Int)) (|.xpv.2| (Array Int Int)) (|.xpv.3| (Array Int Int))) (=> (and (state |A| |B| |C| |D| |F| |K| |.y.2| |.loc.3| |E.1| |J| |I| |H| |E_0.1| |H_0| |E_1.1| |J_0| |H_1|) (let ((.def_48 (select I J))) (and (and (not .loc.3) (and (and (and (and (and (and (and (not (= (select E.1 F) 0)) (and (<= 0 .def_48) (and (= A (select H A)) (and (= C (select H C)) (and (= D (select H D)) (and (= (+ .def_48 (* (- 1) (select I G))) (- 1)) (and (= .def_48 0) (= (select E.1 B) 0)))))))) (= A .x.1)) (= B .x.2)) (= C .x.3)) (= D .x.4)) (= F .x.5)) (= K .x.6))) .loc.4))) (state |.x.1| |.x.2| |.x.3| |.x.4| |.x.5| |G| |.x.6| |.loc.4| |.xtv.1| |.xtv.2| |.xtv.3| |.xtv.4| |.xiv.1| |.xiv.2| |.xpv.1| |.xpv.2| |.xpv.3|))))
(assert (forall ((|A| Int) (|B| Int) (|C| Int) (|D| Int) (|F| Int) (|K| Int) (|.y.2| Int) (|.loc.3| Bool) (|E.1| (Array Int Int)) (|J| Int) (|I| (Array Int Int)) (|H| (Array Int Int)) (|E_0.1| (Array Int Int)) (|H_0| (Array Int Int)) (|E_1.1| (Array Int Int)) (|J_0| (Array Int Int)) (|H_1| (Array Int Int)) (|G| Int) (|.x.1| Int) (|.x.2| Int) (|.x.3| Int) (|.x.4| Int) (|.x.5| Int) (|.x.6| Int) (|.loc.4| Bool) (|.xtv.1| (Array Int Int)) (|.xtv.2| Int) (|.xtv.3| (Array Int Int)) (|.xtv.4| (Array Int Int)) (|.xiv.1| (Array Int Int)) (|.xiv.2| (Array Int Int)) (|.xpv.1| (Array Int Int)) (|.xpv.2| (Array Int Int)) (|.xpv.3| (Array Int Int))) (=> (state |A| |B| |C| |D| |F| |K| |.y.2| |.loc.3| |E.1| |J| |I| |H| |E_0.1| |H_0| |E_1.1| |J_0| |H_1|) (not (and .loc.3 (and (and (and (and (and (= (select E_1.1 B) 0) (= D (select H_1 D))) (= C (select H_1 C))) (= A (select H_1 A))) (<= (select J_0 K) 0)) (not (= (select E_1.1 F) 0))))))))
(check-sat)
